55
1 0 12
2 0 5
2 1 11
3 0 2
3 1 4
3 2 23
4 0 23
4 1 14
4 2 4
4 3 11
5 0 18
5 1 25
5 2 8
5 3 6
5 4 5
6 0 10
6 1 20
6 2 17
6 3 25
6 4 15
6 5 7
7 0 14
7 1 23
7 2 17
7 3 4
7 4 9
7 5 1
7 6 14
8 0 12
8 1 18
8 2 20
8 3 13
8 4 6
8 5 15
8 6 25
8 7 22
9 0 18
9 1 7
9 2 3
9 3 14
9 4 17
9 5 18
9 6 23
9 7 23
9 8 2
10 0 3
10 1 20
10 2 22
10 3 13
10 4 5
10 5 8
10 6 1
10 7 4
10 8 15
10 9 8
11 0 4
11 1 16
11 2 5
11 3 4
11 4 2
11 5 16
11 6 5
11 7 24
11 8 25
11 9 23
11 10 5
12 0 24
12 1 17
12 2 10
12 3 12
12 4 25
12 5 4
12 6 4
12 7 23
12 8 9
12 9 16
12 10 23
12 11 23
13 0 18
13 1 4
13 2 8
13 3 10
13 4 20
13 5 19
13 6 25
13 7 16
13 8 21
13 9 16
13 10 23
13 11 8
13 12 16
14 0 25
14 1 8
14 2 3
14 3 16
14 4 4
14 5 10
14 6 16
14 7 12
14 8 23
14 9 21
14 10 3
14 11 8
14 12 21
14 13 5
15 0 9
15 1 21
15 2 16
15 3 2
15 4 2
15 5 6
15 6 8
15 7 3
15 8 7
15 9 23
15 10 25
15 11 11
15 12 5
15 13 10
15 14 12
16 0 20
16 1 19
16 2 24
16 3 25
16 4 7
16 5 15
16 6 18
16 7 18
16 8 13
16 9 13
16 10 16
16 11 23
16 12 3
16 13 10
16 14 17
16 15 23
17 0 20
17 1 22
17 2 21
17 3 8
17 4 10
17 5 25
17 6 13
17 7 19
17 8 18
17 9 6
17 10 16
17 11 18
17 12 15
17 13 22
17 14 23
17 15 22
17 16 16
18 0 11
18 1 22
18 2 16
18 3 23
18 4 21
18 5 12
18 6 16
18 7 1
18 8 24
18 9 12
18 10 19
18 11 24
18 12 23
18 13 9
18 14 6
18 15 14
18 16 17
18 17 14
19 0 14
19 1 8
19 2 10
19 3 19
19 4 16
19 5 20
19 6 7
19 7 11
19 8 9
19 9 9
19 10 20
19 11 19
19 12 3
19 13 4
19 14 20
19 15 10
19 16 15
19 17 6
19 18 19
20 0 19
20 1 6
20 2 19
20 3 5
20 4 4
20 5 14
20 6 18
20 7 23
20 8 11
20 9 11
20 10 11
20 11 13
20 12 1
20 13 8
20 14 24
20 15 22
20 16 7
20 17 13
20 18 6
20 19 23
21 0 8
21 1 5
21 2 1
21 3 1
21 4 14
21 5 7
21 6 17
21 7 3
21 8 21
21 9 10
21 10 23
21 11 7
21 12 1
21 13 1
21 14 11
21 15 25
21 16 20
21 17 4
21 18 10
21 19 23
21 20 21
22 0 20
22 1 25
22 2 11
22 3 4
22 4 2
22 5 25
22 6 12
22 7 9
22 8 19
22 9 20
22 10 11
22 11 22
22 12 24
22 13 21
22 14 5
22 15 6
22 16 14
22 17 25
22 18 9
22 19 21
22 20 21
22 21 8
23 0 3
23 1 6
23 2 5
23 3 24
23 4 9
23 5 19
23 6 14
23 7 19
23 8 9
23 9 6
23 10 13
23 11 11
23 12 7
23 13 16
23 14 9
23 15 23
23 16 3
23 17 10
23 18 3
23 19 11
23 20 14
23 21 9
23 22 8
24 0 12
24 1 3
24 2 2
24 3 1
24 4 14
24 5 8
24 6 11
24 7 15
24 8 10
24 9 5
24 10 25
24 11 1
24 12 6
24 13 20
24 14 9
24 15 11
24 16 4
24 17 24
24 18 9
24 19 10
24 20 11
24 21 3
24 22 2
24 23 8
25 0 22
25 1 9
25 2 1
25 3 8
25 4 3
25 5 22
25 6 13
25 7 11
25 8 14
25 9 2
25 10 21
25 11 2
25 12 11
25 13 12
25 14 25
25 15 18
25 16 1
25 17 4
25 18 15
25 19 12
25 20 11
25 21 5
25 22 4
25 23 23
25 24 19
26 0 9
26 1 16
26 2 5
26 3 9
26 4 22
26 5 22
26 6 7
26 7 20
26 8 16
26 9 24
26 10 13
26 11 1
26 12 14
26 13 24
26 14 14
26 15 10
26 16 16
26 17 15
26 18 23
26 19 8
26 20 10
26 21 11
26 22 3
26 23 19
26 24 24
26 25 25
27 0 20
27 1 17
27 2 1
27 3 24
27 4 17
27 5 15
27 6 14
27 7 16
27 8 11
27 9 6
27 10 21
27 11 15
27 12 5
27 13 9
27 14 1
27 15 3
27 16 22
27 17 12
27 18 15
27 19 22
27 20 10
27 21 1
27 22 25
27 23 23
27 24 2
27 25 13
27 26 6
28 0 1
28 1 5
28 2 24
28 3 10
28 4 23
28 5 23
28 6 12
28 7 3
28 8 16
28 9 21
28 10 8
28 11 14
28 12 19
28 13 16
28 14 20
28 15 6
28 16 15
28 17 7
28 18 5
28 19 16
28 20 16
28 21 1
28 22 23
28 23 16
28 24 5
28 25 21
28 26 12
28 27 14
29 0 24
29 1 1
29 2 4
29 3 7
29 4 14
29 5 8
29 6 21
29 7 14
29 8 17
29 9 3
29 10 10
29 11 25
29 12 11
29 13 10
29 14 17
29 15 21
29 16 11
29 17 3
29 18 12
29 19 15
29 20 9
29 21 9
29 22 15
29 23 4
29 24 1
29 25 19
29 26 5
29 27 8
29 28 16
30 0 7
30 1 12
30 2 12
30 3 5
30 4 18
30 5 1
30 6 14
30 7 9
30 8 8
30 9 12
30 10 10
30 11 13
30 12 12
30 13 9
30 14 13
30 15 22
30 16 17
30 17 1
30 18 23
30 19 5
30 20 6
30 21 11
30 22 12
30 23 7
30 24 18
30 25 23
30 26 13
30 27 23
30 28 8
30 29 8
31 0 24
31 1 19
31 2 10
31 3 18
31 4 5
31 5 21
31 6 1
31 7 18
31 8 8
31 9 7
31 10 2
31 11 21
31 12 9
31 13 11
31 14 10
31 15 12
31 16 12
31 17 17
31 18 24
31 19 22
31 20 18
31 21 14
31 22 7
31 23 18
31 24 23
31 25 24
31 26 7
31 27 8
31 28 6
31 29 10
31 30 3
32 0 13
32 1 21
32 2 22
32 3 10
32 4 22
32 5 24
32 6 15
32 7 7
32 8 16
32 9 12
32 10 21
32 11 2
32 12 22
32 13 20
32 14 7
32 15 4
32 16 6
32 17 24
32 18 1
32 19 23
32 20 12
32 21 11
32 22 5
32 23 16
32 24 2
32 25 25
32 26 25
32 27 8
32 28 23
32 29 3
32 30 22
32 31 6
33 0 12
33 1 24
33 2 4
33 3 22
33 4 11
33 5 7
33 6 21
33 7 23
33 8 24
33 9 8
33 10 1
33 11 21
33 12 11
33 13 11
33 14 19
33 15 13
33 16 12
33 17 25
33 18 12
33 19 6
33 20 5
33 21 17
33 22 22
33 23 14
33 24 4
33 25 6
33 26 5
33 27 1
33 28 22
33 29 15
33 30 2
33 31 22
33 32 5
34 0 15
34 1 19
34 2 25
34 3 1
34 4 17
34 5 12
34 6 22
34 7 21
34 8 23
34 9 17
34 10 13
34 11 10
34 12 4
34 13 12
34 14 2
34 15 8
34 16 2
34 17 22
34 18 2
34 19 8
34 20 9
34 21 13
34 22 15
34 23 13
34 24 10
34 25 12
34 26 24
34 27 7
34 28 12
34 29 7
34 30 2
34 31 1
34 32 13
34 33 16
35 0 8
35 1 4
35 2 25
35 3 4
35 4 6
35 5 5
35 6 16
35 7 3
35 8 11
35 9 16
35 10 7
35 11 24
35 12 24
35 13 11
35 14 16
35 15 16
35 16 18
35 17 5
35 18 22
35 19 7
35 20 4
35 21 15
35 22 16
35 23 24
35 24 16
35 25 8
35 26 7
35 27 1
35 28 23
35 29 21
35 30 24
35 31 20
35 32 4
35 33 13
35 34 25
36 0 8
36 1 16
36 2 24
36 3 20
36 4 12
36 5 16
36 6 4
36 7 5
36 8 19
36 9 9
36 10 19
36 11 15
36 12 15
36 13 24
36 14 5
36 15 1
36 16 12
36 17 2
36 18 19
36 19 12
36 20 25
36 21 23
36 22 6
36 23 23
36 24 14
36 25 11
36 26 20
36 27 20
36 28 4
36 29 4
36 30 18
36 31 22
36 32 25
36 33 22
36 34 25
36 35 2
37 0 15
37 1 8
37 2 23
37 3 24
37 4 9
37 5 21
37 6 21
37 7 1
37 8 1
37 9 17
37 10 22
37 11 4
37 12 19
37 13 2
37 14 10
37 15 24
37 16 6
37 17 18
37 18 9
37 19 4
37 20 12
37 21 21
37 22 16
37 23 6
37 24 17
37 25 21
37 26 17
37 27 24
37 28 2
37 29 14
37 30 4
37 31 1
37 32 4
37 33 13
37 34 2
37 35 16
37 36 8
38 0 6
38 1 15
38 2 11
38 3 21
38 4 9
38 5 20
38 6 1
38 7 24
38 8 8
38 9 21
38 10 9
38 11 14
38 12 14
38 13 4
38 14 3
38 15 23
38 16 5
38 17 17
38 18 8
38 19 10
38 20 4
38 21 6
38 22 25
38 23 6
38 24 8
38 25 8
38 26 21
38 27 14
38 28 10
38 29 25
38 30 2
38 31 5
38 32 20
38 33 15
38 34 12
38 35 11
38 36 20
38 37 21
39 0 1
39 1 8
39 2 24
39 3 12
39 4 17
39 5 5
39 6 20
39 7 8
39 8 22
39 9 17
39 10 25
39 11 16
39 12 12
39 13 10
39 14 24
39 15 15
39 16 19
39 17 24
39 18 16
39 19 12
39 20 14
39 21 1
39 22 4
39 23 4
39 24 7
39 25 17
39 26 25
39 27 23
39 28 12
39 29 20
39 30 8
39 31 22
39 32 1
39 33 10
39 34 17
39 35 21
39 36 7
39 37 18
39 38 15
40 0 15
40 1 24
40 2 4
40 3 15
40 4 22
40 5 24
40 6 22
40 7 14
40 8 1
40 9 17
40 10 16
40 11 7
40 12 14
40 13 19
40 14 20
40 15 3
40 16 6
40 17 22
40 18 14
40 19 25
40 20 6
40 21 21
40 22 16
40 23 15
40 24 4
40 25 17
40 26 2
40 27 4
40 28 11
40 29 4
40 30 2
40 31 2
40 32 4
40 33 22
40 34 7
40 35 19
40 36 11
40 37 14
40 38 4
40 39 6
41 0 5
41 1 8
41 2 12
41 3 20
41 4 18
41 5 4
41 6 21
41 7 16
41 8 4
41 9 21
41 10 20
41 11 2
41 12 19
41 13 19
41 14 5
41 15 24
41 16 4
41 17 25
41 18 19
41 19 18
41 20 24
41 21 19
41 22 16
41 23 1
41 24 6
41 25 17
41 26 19
41 27 5
41 28 23
41 29 24
41 30 19
41 31 22
41 32 21
41 33 20
41 34 17
41 35 3
41 36 6
41 37 25
41 38 3
41 39 10
41 40 4
42 0 24
42 1 14
42 2 7
42 3 13
42 4 16
42 5 11
42 6 3
42 7 13
42 8 23
42 9 5
42 10 18
42 11 9
42 12 8
42 13 5
42 14 12
42 15 13
42 16 11
42 17 24
42 18 4
42 19 13
42 20 9
42 21 11
42 22 9
42 23 3
42 24 13
42 25 10
42 26 24
42 27 14
42 28 18
42 29 14
42 30 1
42 31 20
42 32 5
42 33 3
42 34 22
42 35 2
42 36 13
42 37 3
42 38 14
42 39 9
42 40 22
42 41 16
43 0 6
43 1 14
43 2 13
43 3 2
43 4 2
43 5 23
43 6 20
43 7 23
43 8 22
43 9 8
43 10 24
43 11 1
43 12 3
43 13 12
43 14 14
43 15 19
43 16 14
43 17 10
43 18 8
43 19 2
43 20 17
43 21 22
43 22 14
43 23 4
43 24 23
43 25 20
43 26 23
43 27 17
43 28 2
43 29 25
43 30 6
43 31 20
43 32 10
43 33 24
43 34 24
43 35 2
43 36 19
43 37 18
43 38 14
43 39 14
43 40 3
43 41 24
43 42 12
44 0 21
44 1 19
44 2 19
44 3 6
44 4 22
44 5 23
44 6 15
44 7 1
44 8 15
44 9 11
44 10 16
44 11 7
44 12 13
44 13 22
44 14 20
44 15 25
44 16 7
44 17 11
44 18 7
44 19 22
44 20 1
44 21 4
44 22 25
44 23 15
44 24 14
44 25 5
44 26 15
44 27 2
44 28 13
44 29 19
44 30 24
44 31 20
44 32 9
44 33 14
44 34 5
44 35 17
44 36 24
44 37 18
44 38 8
44 39 21
44 40 4
44 41 23
44 42 19
44 43 13
45 0 10
45 1 24
45 2 23
45 3 9
45 4 2
45 5 20
45 6 8
45 7 20
45 8 5
45 9 16
45 10 14
45 11 12
45 12 9
45 13 10
45 14 16
45 15 1
45 16 6
45 17 8
45 18 14
45 19 10
45 20 10
45 21 23
45 22 11
45 23 5
45 24 7
45 25 12
45 26 2
45 27 23
45 28 21
45 29 22
45 30 6
45 31 24
45 32 7
45 33 18
45 34 22
45 35 12
45 36 21
45 37 6
45 38 19
45 39 11
45 40 18
45 41 18
45 42 18
45 43 3
45 44 25
46 0 4
46 1 11
46 2 17
46 3 2
46 4 10
46 5 22
46 6 21
46 7 4
46 8 24
46 9 13
46 10 3
46 11 7
46 12 7
46 13 17
46 14 7
46 15 19
46 16 15
46 17 16
46 18 3
46 19 2
46 20 19
46 21 3
46 22 7
46 23 10
46 24 7
46 25 16
46 26 11
46 27 17
46 28 14
46 29 25
46 30 2
46 31 17
46 32 16
46 33 23
46 34 13
46 35 6
46 36 9
46 37 22
46 38 12
46 39 6
46 40 1
46 41 1
46 42 1
46 43 11
46 44 8
46 45 7
47 0 4
47 1 9
47 2 12
47 3 24
47 4 4
47 5 2
47 6 1
47 7 3
47 8 13
47 9 10
47 10 13
47 11 15
47 12 1
47 13 21
47 14 5
47 15 8
47 16 13
47 17 4
47 18 24
47 19 17
47 20 22
47 21 21
47 22 16
47 23 9
47 24 19
47 25 16
47 26 10
47 27 2
47 28 12
47 29 11
47 30 8
47 31 11
47 32 18
47 33 2
47 34 17
47 35 19
47 36 5
47 37 25
47 38 13
47 39 3
47 40 14
47 41 12
47 42 2
47 43 18
47 44 17
47 45 15
47 46 25
48 0 21
48 1 17
48 2 23
48 3 13
48 4 19
48 5 9
48 6 24
48 7 14
48 8 3
48 9 23
48 10 20
48 11 10
48 12 9
48 13 8
48 14 7
48 15 3
48 16 4
48 17 11
48 18 17
48 19 9
48 20 4
48 21 24
48 22 1
48 23 15
48 24 9
48 25 17
48 26 4
48 27 4
48 28 17
48 29 11
48 30 4
48 31 6
48 32 9
48 33 12
48 34 5
48 35 21
48 36 20
48 37 10
48 38 17
48 39 16
48 40 22
48 41 12
48 42 17
48 43 9
48 44 25
48 45 14
48 46 1
48 47 7
49 0 23
49 1 20
49 2 4
49 3 15
49 4 19
49 5 5
49 6 23
49 7 19
49 8 2
49 9 17
49 10 1
49 11 12
49 12 20
49 13 16
49 14 10
49 15 13
49 16 2
49 17 24
49 18 1
49 19 20
49 20 1
49 21 20
49 22 2
49 23 4
49 24 7
49 25 19
49 26 18
49 27 24
49 28 23
49 29 14
49 30 5
49 31 13
49 32 16
49 33 14
49 34 18
49 35 16
49 36 24
49 37 9
49 38 20
49 39 3
49 40 11
49 41 14
49 42 17
49 43 25
49 44 23
49 45 10
49 46 25
49 47 13
49 48 17
50 0 21
50 1 3
50 2 9
50 3 9
50 4 5
50 5 6
50 6 20
50 7 2
50 8 9
50 9 24
50 10 19
50 11 13
50 12 19
50 13 11
50 14 5
50 15 20
50 16 15
50 17 24
50 18 11
50 19 16
50 20 1
50 21 12
50 22 20
50 23 17
50 24 19
50 25 20
50 26 8
50 27 15
50 28 4
50 29 13
50 30 8
50 31 10
50 32 5
50 33 2
50 34 24
50 35 8
50 36 19
50 37 9
50 38 3
50 39 1
50 40 22
50 41 24
50 42 18
50 43 1
50 44 3
50 45 20
50 46 25
50 47 10
50 48 5
50 49 19
51 0 9
51 1 12
51 2 11
51 3 8
51 4 14
51 5 2
51 6 25
51 7 4
51 8 5
51 9 3
51 10 1
51 11 7
51 12 1
51 13 1
51 14 19
51 15 9
51 16 6
51 17 3
51 18 13
51 19 18
51 20 25
51 21 23
51 22 5
51 23 23
51 24 20
51 25 6
51 26 18
51 27 19
51 28 11
51 29 1
51 30 17
51 31 8
51 32 15
51 33 20
51 34 3
51 35 7
51 36 8
51 37 25
51 38 12
51 39 15
51 40 4
51 41 12
51 42 18
51 43 13
51 44 8
51 45 25
51 46 14
51 47 7
51 48 8
51 49 18
51 50 1
52 0 19
52 1 8
52 2 18
52 3 2
52 4 16
52 5 11
52 6 19
52 7 7
52 8 3
52 9 4
52 10 24
52 11 25
52 12 9
52 13 18
52 14 19
52 15 8
52 16 1
52 17 20
52 18 25
52 19 21
52 20 4
52 21 23
52 22 8
52 23 14
52 24 10
52 25 23
52 26 8
52 27 13
52 28 1
52 29 14
52 30 23
52 31 22
52 32 3
52 33 8
52 34 12
52 35 23
52 36 16
52 37 4
52 38 25
52 39 16
52 40 1
52 41 21
52 42 25
52 43 4
52 44 23
52 45 4
52 46 3
52 47 14
52 48 21
52 49 19
52 50 16
52 51 4
53 0 2
53 1 2
53 2 5
53 3 11
53 4 25
53 5 4
53 6 18
53 7 21
53 8 23
53 9 23
53 10 4
53 11 4
53 12 13
53 13 9
53 14 11
53 15 25
53 16 4
53 17 22
53 18 1
53 19 8
53 20 8
53 21 10
53 22 18
53 23 18
53 24 15
53 25 21
53 26 16
53 27 5
53 28 20
53 29 22
53 30 21
53 31 1
53 32 21
53 33 13
53 34 11
53 35 6
53 36 9
53 37 13
53 38 14
53 39 17
53 40 24
53 41 15
53 42 20
53 43 3
53 44 1
53 45 5
53 46 1
53 47 1
53 48 2
53 49 20
53 50 22
53 51 2
53 52 1
54 0 18
54 1 9
54 2 12
54 3 8
54 4 15
54 5 20
54 6 22
54 7 16
54 8 25
54 9 16
54 10 18
54 11 1
54 12 23
54 13 4
54 14 6
54 15 13
54 16 4
54 17 24
54 18 15
54 19 10
54 20 13
54 21 1
54 22 13
54 23 23
54 24 19
54 25 25
54 26 25
54 27 4
54 28 16
54 29 10
54 30 10
54 31 25
54 32 3
54 33 22
54 34 22
54 35 19
54 36 21
54 37 25
54 38 6
54 39 24
54 40 22
54 41 7
54 42 19
54 43 19
54 44 10
54 45 10
54 46 17
54 47 17
54 48 10
54 49 21
54 50 2
54 51 11
54 52 22
54 53 23
